10	10
4	6	5	2	7	2	3	5	8	3	2	2	6	2	9	1	1	5	0	8
9	1	8	5	6	2	7	7	0	6	2	6	5	2	1	6	3	7	4	1
8	7	9	1	0	3	6	5	3	1	5	4	2	6	4	9	7	8	1	8
4	1	5	2	7	7	6	6	0	4	2	4	9	9	8	5	1	3	3	3
6	7	0	5	5	5	3	1	4	6	9	4	7	1	8	6	2	5	1	4
7	6	4	2	2	3	1	1	9	9	0	2	6	6	8	9	5	1	3	2
1	6	8	8	2	1	0	2	5	9	7	6	4	6	3	7	9	9	6	9
0	6	6	4	3	9	7	4	9	7	1	8	5	1	2	9	4	8	8	4
6	3	2	3	0	5	8	5	9	5	3	7	5	2	4	9	1	2	7	9
6	4	7	1	5	9	1	3	4	8	3	3	0	3	8	9	2	8	9	8
